
Gurobi 9.5.1 (mac64[x86]) logging started Wed Jun  8 02:20:57 2022

Set parameter LogFile to value "/Users/keyvanmajd/Documents/GitHub/NNRepLayer_v2/demos/examples/tc7_walking_example/repair_phase_constraint/repair_net/logs/opt_log_6_8_2022_2_20_40.log"
Gurobi Optimizer version 9.5.1 build v9.5.1rc2 (mac64[x86])
Thread count: 4 physical cores, 8 logical processors, using up to 8 threads
Optimize a model with 366 rows, 134 columns and 1230 nonzeros
Model fingerprint: 0x729bb626
Model has 101 quadratic objective terms
Coefficient statistics:
  Matrix range     [1e-02, 1e+01]
  Objective range  [4e-02, 5e+00]
  QObjective range [2e-01, 2e+00]
  Bounds range     [1e+01, 1e+02]
  RHS range        [5e-04, 2e+01]
Presolve removed 226 rows and 13 columns
Presolve time: 0.01s
Presolved: 140 rows, 121 columns, 978 nonzeros
Presolved model has 101 quadratic objective terms
Ordering time: 0.00s

Barrier statistics:
 Dense cols : 18
 AA' NZ     : 9.380e+02
 Factor NZ  : 1.339e+03
 Factor Ops : 1.426e+04 (less than 1 second per iteration)
 Threads    : 1

                  Objective                Residual
Iter       Primal          Dual         Primal    Dual     Compl     Time
   0   4.02197802e+07 -4.11369340e+07  6.61e+03 7.35e+02  8.91e+05     0s
   1   1.41469681e+07 -1.51221817e+07  3.86e+03 4.29e+02  5.68e+05     0s
   2   5.08108230e+03 -1.28873537e+06  6.61e+01 7.36e+00  1.62e+04     0s
   3   1.43420851e+03 -9.48050225e+05  1.89e+01 2.10e+00  6.54e+03     0s
   4   1.35131277e+03 -6.69978348e+05  1.37e+01 1.53e+00  5.19e+03     0s
   5   1.36861583e+03 -2.62970951e+05  1.25e+01 1.39e+00  4.97e+03     0s
   6   1.37059984e+03  1.37478369e+06  1.15e+01 1.28e+00  4.79e+03     0s
   7   1.37367573e+03  2.93385126e+06  1.10e+01 1.23e+00  4.45e+03     0s
   8   1.38297111e+03  7.40601202e+06  1.08e+01 1.20e+00  4.14e+03     0s
   9   1.38779290e+03  1.77484961e+07  1.08e+01 1.20e+00  4.12e+03     0s
  10   1.38764550e+03  2.13914456e+07  1.08e+01 1.20e+00  4.13e+03     0s
  11   1.38776994e+03  2.37982624e+07  1.08e+01 1.20e+00  4.14e+03     0s
  12   1.38789572e+03  2.51718823e+07  1.08e+01 1.20e+00  4.15e+03     0s
  13   1.40739486e+03  5.74407613e+07  1.07e+01 1.20e+00  4.35e+03     0s
  14   1.41430084e+03  2.13009369e+08  1.07e+01 1.19e+00  4.68e+03     0s
  15   1.41769326e+03  1.04033562e+09  1.07e+01 1.19e+00  6.06e+03     0s
  16   1.00609453e+09 -1.01069096e+09  3.30e+04 3.65e+03  2.22e+07     0s
  17   1.57438072e+04 -2.65917808e+04  1.31e+02 1.31e+01  3.16e+02     0s
  18   1.37251133e+03 -1.89519322e+03  2.97e+01 2.98e+00  2.08e+01     0s
  19   1.17231385e+03  6.21096517e+02  1.36e+01 1.36e+00  7.86e+00     0s
  20   1.36767024e+03  3.12929343e+03  1.48e+01 1.49e+00  2.23e+01     0s
  21   1.54439436e+03  6.96074866e+04  1.32e+01 1.33e+00  6.19e+02     0s
  22   1.91897342e+03  2.98409141e+05  2.53e+01 2.54e+00  5.98e+04     0s
  23*  1.63127735e+03  6.05336865e+06  5.66e-01 7.70e-02  1.91e+02     0s
  24*  1.63127844e+03  4.75095840e+09  5.66e-04 7.51e-05  1.91e-01     0s
  25*  1.63241615e+03  4.74424976e+12  5.67e-07 2.95e-07  1.92e-04     0s
  26*  1.31428219e+03  2.26991768e+15  1.91e-10 3.79e-09  2.49e-07     0s
  27*  1.30964767e+03  1.36498949e+16  3.12e-10 1.22e-09  3.60e-08     0s
  28*  1.30964767e+03  1.36377766e+19  3.12e-13 9.18e-10  3.61e-11     0s

Barrier performed 28 iterations in 0.03 seconds (0.00 work units)
Infeasible model

